1125,476
926,887
709,583
196,249
441,528
1020,67
858,753
339,517
893,618
695,494
639,364
841,325
554,279
168,572
888,374
704,258
558,237
694,432
644,292
667,318
539,452
178,327
844,726
630,81
727,702
655,393
951,406
559,646
923,582
641,326
705,389
